(declare-const a Real)
(declare-const b Real)
(declare-const c Real)
(assert (= (+ a b c) 3))
(assert (> a 0))
(assert (> b 0))
(assert (> c 0))
(assert (not (<= (+ (* -12451840 a (pow c 4)) (* -12451840 b (pow a 4)) (* -12079360 c (pow b 4)) (* -2490368 a (pow b 4)) (* -2490368 b (pow c 4)) (* -2293760 (pow a 2) (pow c 3)) (* -2293760 (pow a 3) (pow b 2)) (* -2117888 c (pow a 4)) (* 1638400 (pow b 3) (pow c 2)) (* 2293760 (pow a 2) (pow b 3)) (* 2293760 (pow b 2) (pow c 3)) (* 6225920 (pow a 3) (pow c 2)) (* 6480 c (pow (+ (* 2 a) (* 2 b)) 2) (+ (pow a 2) (pow b 2))) (* 11010048 a b (pow c 3)) (* 12499968 a c (pow b 3)) (* 12499968 b c (pow a 3))) 0)))
(check-sat)
(get-model)
(exit)